certificates/rado_a13_c105_N24.cnf
c Rad2 upper bound instance: x1 + 13*x2 - x3 = 105, interval [1,24]
p cnf 24 90
1 9 13 0
-1 -9 -13 0
1 2 8 0
-1 -2 -8 0
2 9 14 0
-2 -9 -14 0
2 3 8 0
-2 -3 -8 0
3 9 15 0
-3 -9 -15 0
3 4 8 0
-3 -4 -8 0
4 9 16 0
-4 -9 -16 0
4 5 8 0
-4 -5 -8 0
5 9 17 0
-5 -9 -17 0
5 6 8 0
-5 -6 -8 0
6 9 18 0
-6 -9 -18 0
6 7 8 0
-6 -7 -8 0
7 9 19 0
-7 -9 -19 0
7 8 0
-7 -8 0
8 9 20 0
-8 -9 -20 0
8 9 0
-8 -9 0
9 21 0
-9 -21 0
8 9 10 0
-8 -9 -10 0
9 10 22 0
-9 -10 -22 0
8 10 11 0
-8 -10 -11 0
9 11 23 0
-9 -11 -23 0
8 11 12 0
-8 -11 -12 0
9 12 24 0
-9 -12 -24 0
8 12 13 0
-8 -12 -13 0
8 13 14 0
-8 -13 -14 0
1 7 15 0
-1 -7 -15 0
8 14 15 0
-8 -14 -15 0
2 7 16 0
-2 -7 -16 0
8 15 16 0
-8 -15 -16 0
3 7 17 0
-3 -7 -17 0
8 16 17 0
-8 -16 -17 0
4 7 18 0
-4 -7 -18 0
8 17 18 0
-8 -17 -18 0
5 7 19 0
-5 -7 -19 0
8 18 19 0
-8 -18 -19 0
6 7 20 0
-6 -7 -20 0
8 19 20 0
-8 -19 -20 0
7 21 0
-7 -21 0
8 20 21 0
-8 -20 -21 0
7 8 22 0
-7 -8 -22 0
8 21 22 0
-8 -21 -22 0
7 9 23 0
-7 -9 -23 0
8 22 23 0
-8 -22 -23 0
7 10 24 0
-7 -10 -24 0
8 23 24 0
-8 -23 -24 0
