certificates/rado_a13_c105_N24.drat
-23 -24 0
d -23 -8 -24 0
-9 -24 0
-24 0
9 0
-8 0
-21 0
7 0
23 0
22 0
20 0
0
